Route #1: 74 13 31 17 69 105 64 94 57
Route #2: 82 63 40 2 83 77 85 54 21
Route #3: 96 45 100 51 76 15 44 5
Route #4: 29 72 34 11 99 49 71
Route #5: 60 87 43 97 93 101 103 53
Route #6: 14 58 88 91 36 8 48 67
Route #7: 7 75 84 9 12 104 1
Route #8: 52 92 102 24 90 26 62
Route #9: 28 66 46 79 37 27 19 78
Route #10: 33 22
Route #11: 56 20 16 10 41 18 86
Route #12: 59 89 30 42 23 3 32 73 35
Route #13: 55 98 4 70 6 81 50 39
Route #14: 25 47 61 80 65 38 95 68
Cost 26374
